nNurses = 94;
nHours = 27;
minHours = 10;
maxHours = 18;
maxConsec = 13;
maxPresence = 20;
demand = [21, 24, 21, 26, 24, 22, 22, 22, 24, 19, 20, 16, 16, 17, 14, 17, 13, 10, 8, 11, 12, 17, 21, 17, 21, 24, 26];
